File: D:\ML4VRP2024\Instances\CVRP\json\X-n162-k11.json exists.
Route #1: 15 29 10 105 126 138 133 107 122 84 143 55 1 21 60 
Route #2: 59 72 156 115 141 135 147 159 118 82 2 109 30 40 157 103 
Route #3: 54 78 79 22 34 7 44 75 33 3 51 42 19 18 64 
Route #4: 155 92 125 108 137 39 146 151 101 87 4 112 132 93 74 57 
Route #5: 136 91 81 158 120 13 71 37 6 49 5 16 32 131 
Route #6: 8 76 41 61 46 69 65 12 70 113 63 98 47 25 
Route #7: 127 139 17 149 89 97 14 9 117 27 104 83 161 77 
Route #8: 50 45 152 150 90 145 28 26 48 11 38 73 23 24 68 
Route #9: 52 20 67 62 114 102 96 129 95 88 106 43 142 123 111 116 
Route #10: 80 53 86 154 140 99 130 58 35 36 94 66 56 100 31 
Route #11: 119 144 121 85 160 153 110 128 124 134 148 
